$ nonogram instance, generated by: nonogen 10 5 0.40 0.9 0.4 3090012249
$ MULTIPLE SOLUTIONS
$ #..#.
$ ##...
$ ..##.
$ #....
$ ##.##
$ .###.
$ .....
$ ...#.
$ .###.
$ .##..
letting m be 10
letting n be 5
letting rowRules be [
sequence(1,1),
sequence(2),
sequence(2),
sequence(1),
sequence(2,2),
sequence(3),
sequence(),
sequence(1),
sequence(3),
sequence(2)]
letting colRules be [
sequence(2,2),
sequence(1,2,2),
sequence(1,1,2),
sequence(1,1,2,2),
sequence(1)]
